1362
146	106	111	-3	59	30	92	46	42	38	43	11	7	51	21	-19	15	5	72	104	54	46	135	101	36	-5	107	94	110	41	52	52	-13	24	8	117	123	100	-23	17	73	68	75	130	59	7	27	26	84	84	
100	62	65	22	77	10	81	81	19	88	34	49	44	75	13	24	28	29	79	80	97	76	100	67	65	45	67	45	76	40	43	17	15	70	15	97	92	71	4	13	81	53	34	80	56	45	49	32	56	63	